Input: ticf-13crafa.prec25.dzn
============================================================
Total Runtime: 1.2608 seconds
Input parsing: 0.0034 seconds
Constraint building: 0.6572 seconds
MaxSAT solving: 0.1578 seconds
============================================================

Total variables: 182834
Total clauses: 384518
MaxSAT found with cost: N/A
NO SOLUTION FOUND
